%mem=16GB
%nprocshared=16
#p oniom(m062x/def2TZVPP:PM7)
 
Title Card Required
 
0 1
[GEOMETRY]


