units real
boundary p p p
neighbor 4.0 bin
neigh_modify delay 0 every 1 check yes

atom_style full
bond_style harmonic
angle_style harmonic
dihedral_style opls
improper_style cvff

pair_style hybrid/overlay lj/cut/coul/long 12.0 12.0 coul/long/cs 12.0 thole 2.600 12.0
pair_modify tail yes
kspace_style pppm 1.0e-5
special_bonds lj/coul 0.0 0.0 0.5

read_data data-p.lmp extra/special/per/atom 3

include pair-p-sc.lmp

group atoms type group-atoms-placeholder 
group cores type group-cores-placeholder
group DRUDES type group-drudes-placeholder

fix_DRUDE_placeholder

minimize 1.0e-5 1.0e-7 100 1000
reset_timestep 0

SHAKE_placeholder

timestep   0.4

velocity        atoms create 298 298 dist gaussian
velocity        DRUDES create 1 1 dist gaussian

comm_modify vel yes

compute tdrude all temp/drude
compute tatom atoms temp

fix didir all drude/transform/direct
fix 8 atoms     npt temp 298 298 200 iso 1.0 1.0 1000
fix kick atoms       efield 0.0 0.0 Fieldstrength
fix_modify TSTAT temp tatom press thermo_press
fix 9 DRUDES nvt temp 1.0 1.0 50
fix dtinv all drude/transform/inverse

fix icecube all momentum 1000 linear 1 1 1

thermo_style custom step cpu etotal ke pe evdwl ecoul elong temp press vol density c_tatom c_tdrude[1] c_tdrude[2]
thermo 1000

restart         1000 template.restart1 template.restart2

dump d1 all     custom 1000 traj-template.lmp element xu yu zu
dump_modi_placeholder
dump_modify TRAJ  sort id
run 25000000
undump TRAJ
unfix didir
unfix 8
unfix 9
unfix dtinv

