# created by fftool

units real
boundary p p p

atom_style full
bond_style harmonic
angle_style harmonic
dihedral_style opls

special_bonds lj/coul 0.0 0.0 0.5

pair_style hybrid lj/cut/coul/long 12.0 12.0
pair_modify mix geometric tail yes
kspace_style pppm 1.0e-5

read_data data.lmp
# read_restart restart1.lmp

pair_coeff    1    1 lj/cut/coul/long     0.030000     2.500000  # H00 H00
pair_coeff    2    2 lj/cut/coul/long     0.065999     3.500000  # C01 C01
pair_coeff    3    3 lj/cut/coul/long     0.030000     2.500000  # H02 H02
pair_coeff    4    4 lj/cut/coul/long     0.030000     2.500000  # H03 H03
pair_coeff    5    5 lj/cut/coul/long     0.170000     3.120000  # O04 O04
pair_coeff    6    6 lj/cut/coul/long     0.000000     0.000000  # H05 H05
pair_coeff    7    7 lj/cut/coul/long     0.070000     3.550000  # C00 C00
pair_coeff    8    8 lj/cut/coul/long     0.070000     3.550000  # C02 C02
pair_coeff    9    9 lj/cut/coul/long     0.070000     3.550000  # C03 C03
pair_coeff   10   10 lj/cut/coul/long     0.070000     3.550000  # C04 C04
pair_coeff   11   11 lj/cut/coul/long     0.070000     3.550000  # C05 C05
pair_coeff   12   12 lj/cut/coul/long     0.030000     2.420000  # H06 H06
pair_coeff   13   13 lj/cut/coul/long     0.030000     2.420000  # H07 H07
pair_coeff   14   14 lj/cut/coul/long     0.070000     3.550000  # C08 C08
pair_coeff   15   15 lj/cut/coul/long     0.030000     2.420000  # H09 H09
pair_coeff   16   16 lj/cut/coul/long     0.030000     2.420000  # H0A H0A
pair_coeff   17   17 lj/cut/coul/long     0.065999     3.500000  # C0B C0B
pair_coeff   18   18 lj/cut/coul/long     0.210000     2.960000  # O0C O0C
pair_coeff   19   19 lj/cut/coul/long     0.070000     3.550000  # C0D C0D
pair_coeff   20   20 lj/cut/coul/long     0.070000     3.550000  # C0E C0E
pair_coeff   21   21 lj/cut/coul/long     0.030000     2.420000  # H0F H0F
pair_coeff   22   22 lj/cut/coul/long     0.070000     3.550000  # C0G C0G
pair_coeff   23   23 lj/cut/coul/long     0.030000     2.420000  # H0H H0H
pair_coeff   24   24 lj/cut/coul/long     0.070000     3.550000  # C0I C0I
pair_coeff   25   25 lj/cut/coul/long     0.030000     2.420000  # H0J H0J
pair_coeff   26   26 lj/cut/coul/long     0.070000     3.550000  # C0K C0K
pair_coeff   27   27 lj/cut/coul/long     0.030000     2.420000  # H0M H0M
pair_coeff   28   28 lj/cut/coul/long     0.070000     3.550000  # C0N C0N
pair_coeff   29   29 lj/cut/coul/long     0.030000     2.420000  # H0O H0O
pair_coeff   30   30 lj/cut/coul/long     0.030000     2.500000  # H0P H0P
pair_coeff   31   31 lj/cut/coul/long     0.030000     2.500000  # H0Q H0Q
pair_coeff   32   32 lj/cut/coul/long     0.030000     2.500000  # H0R H0R

# minimize 1.0e-4 1.0e-6 100 1000
# reset_timestep 0

fix SHAKE all shake 0.0001 20 0 b 1 2 3 5 8 10 14 16 20 21 22 25 27 29 31 33

neighbor 2.0 bin
# neigh_modify delay 0 every 1 check yes

timestep 1.0

variable TK equal 300.0
variable PBAR equal 1.0

velocity all create ${TK} 12345

fix TPSTAT all npt temp ${TK} ${TK} 100 iso ${PBAR} ${PBAR} 1000

thermo_style custom step cpu etotal ke pe evdwl ecoul elong temp press vol density
thermo 1000

dump TRAJ all custom 1000 dump.lammpstrj id mol type element q x y z ix iy iz
dump_modify TRAJ element H C H H O H C C C C C H H C H H C O C C H C H C H C H C H H H H

variable t equal time
compute MSD all msd com yes
variable msd equal c_MSD[4]
fix PRMSD all print 2000 "${t} ${msd}" file msd.lammps screen no

variable vinst equal vol
fix VAVG all ave/time 10 1000 50000 v_vinst

# restart 10000 restart1.lmp restart2.lmp

run 50000

variable lscale equal (f_VAVG/v_vinst)^(1.0/3.0)
print "scaling coordinates by ${lscale}"
change_box all x scale ${lscale} y scale ${lscale} z scale ${lscale} remap

unfix VAVG
unfix TPSTAT
fix TSTAT all nvt temp ${TK} ${TK} 100

run 10000

write_data data.eq.lmp
